************************************************************************
file with basedata            : md373_.bas
initial value random generator: 1722829669
************************************************************************
projects                      :  1
jobs (incl. supersource/sink ):  22
horizon                       :  156
RESOURCES
  - renewable                 :  2   R
  - nonrenewable              :  2   N
  - doubly constrained        :  0   D
************************************************************************
PROJECT INFORMATION:
pronr.  #jobs rel.date duedate tardcost  MPM-Time
    1     20      0       18        2       18
************************************************************************
PRECEDENCE RELATIONS:
jobnr.    #modes  #successors   successors
   1        1          3           2   3   4
   2        3          3          10  13  16
   3        3          3           7  12  18
   4        3          2           5   6
   5        3          3          10  15  20
   6        3          3           9  10  21
   7        3          3           8  13  14
   8        3          3          11  15  17
   9        3          1          16
  10        3          1          11
  11        3          1          19
  12        3          2          13  21
  13        3          1          17
  14        3          2          15  19
  15        3          1          21
  16        3          2          17  18
  17        3          2          19  20
  18        3          1          20
  19        3          1          22
  20        3          1          22
  21        3          1          22
  22        1          0        
************************************************************************
REQUESTS/DURATIONS:
jobnr. mode duration  R 1  R 2  N 1  N 2
------------------------------------------------------------------------
  1      1     0       0    0    0    0
  2      1     1       3   10   10   10
         2     5       3   10    9    8
         3     6       3   10    6    6
  3      1     2       6    4    7    8
         2     4       4    4    3    6
         3     8       4    4    1    6
  4      1     3       3    1    9    5
         2     7       3    1    5    3
         3     8       2    1    5    2
  5      1     2      10    5    6    8
         2     8       9    5    6    8
         3    10       6    3    5    7
  6      1     3       6    7    6    5
         2     5       5    6    6    4
         3     9       4    4    5    3
  7      1     3       8    6   10    6
         2     4       4    5    9    5
         3     8       2    3    9    3
  8      1     3      10    6    6    9
         2     5       3    3    6    8
         3     5       5    2    5    7
  9      1     2       5   10    7    9
         2     2       6   10    6    9
         3     6       4    9    3    6
 10      1     2       4    6    9    8
         2     4       3    5    9    8
         3     6       3    3    9    4
 11      1     5       7    9    8    8
         2     7       4    7    8    7
         3     9       3    6    7    5
 12      1     5       9    1    5    5
         2     6       7    1    5    5
         3     8       6    1    4    4
 13      1     6       4   10    7    9
         2     7       2   10    6    6
         3     9       2   10    5    5
 14      1     1       7    6    7    9
         2    10       6    4    3    9
         3    10       5    2    7    9
 15      1     4       8    7    6    5
         2     7       7    7    5    4
         3     8       4    6    5    1
 16      1     3       6   10    8    6
         2     5       5    7    3    5
         3     7       3    5    1    4
 17      1     1       9    8    4    9
         2     3       8    7    4    4
         3     9       5    7    3    3
 18      1     1       4   10    8    6
         2     3       3    9    7    5
         3     8       3    9    4    5
 19      1     1       9   10    2    2
         2     4       8    7    1    2
         3     9       5    1    1    2
 20      1     4       4    6    9    7
         2     4       5    8    6    6
         3     6       3    6    2    4
 21      1     3       9    7    8    8
         2     7       8    5    7    8
         3     7       8    6    5    7
 22      1     0       0    0    0    0
************************************************************************
RESOURCEAVAILABILITIES:
  R 1  R 2  N 1  N 2
   14   17  129  130
************************************************************************
MAXIMAL LAGS:
from  to  type  delay
    1   22   ES      0
    1    2   ES      0
    2   22   ES      0
    1    3   ES      0
    3   22   ES      0
    1    4   ES      0
    4   22   ES      0
    1    5   ES      0
    5   22   ES      0
    1    6   ES      0
    6   22   ES      0
    1    7   ES      0
    7   22   ES      0
    1    8   ES      0
    8   22   ES      0
    1    9   ES      0
    9   22   ES      0
    1   10   ES      0
   10   22   ES      0
    1   11   ES      0
   11   22   ES      0
    1   12   ES      0
   12   22   ES      0
    1   13   ES      0
   13   22   ES      0
    1   14   ES      0
   14   22   ES      0
    1   15   ES      0
   15   22   ES      0
    1   16   ES      0
   16   22   ES      0
    1   17   ES      0
   17   22   ES      0
    1   18   ES      0
   18   22   ES      0
    1   19   ES      0
   19   22   ES      0
    1   20   ES      0
   20   22   ES      0
    1   21   ES      0
   21   22   ES      0
    1   22   ES      0
    2   10   SS      3
    2   10   SE     -8
    2   10   ES      1
    2   10   EE      4
    2   13   SS     -6
    2   13   SE      7
    2   13   ES     -1
    2   13   EE    -11
    2   16   SS     12
    2   16   SE      2
    2   16   ES     11
    2   16   EE     10
    3    7   SS    -12
    3    7   SE     -1
    3    7   ES    -10
    3    7   EE     -6
    3   12   SS    -11
    3   12   SE      1
    3   12   ES      7
    3   12   EE      1
    3   18   SS      2
    3   18   SE     -7
    3   18   ES    -10
    3   18   EE     12
    4    5   SS     -8
    4    5   SE      5
    4    5   ES     -9
    4    5   EE     -2
    4    6   SS      0
    4    6   SE      5
    4    6   ES     -5
    4    6   EE      5
    5   10   SS      2
    5   10   SE    -12
    5   10   ES     -7
    5   10   EE      3
    5   15   SS      4
    5   15   SE     -2
    5   15   ES     -5
    5   15   EE      2
    5   20   SS      6
    5   20   SE      5
    5   20   ES     12
    5   20   EE     -8
    6    9   SS     -9
    6    9   SE     -3
    6    9   ES     11
    6    9   EE      6
    6   10   SS     -7
    6   10   SE     -3
    6   10   ES    -10
    6   10   EE     -5
    6   21   SS      3
    6   21   SE     -9
    6   21   ES      3
    6   21   EE     -5
    7    8   SS    -12
    7    8   SE      1
    7    8   ES     10
    7    8   EE     -6
    7   13   SS      6
    7   13   SE    -11
    7   13   ES      4
    7   13   EE     -1
    7   14   SS      4
    7   14   SE     -6
    7   14   ES    -11
    7   14   EE      1
    8   11   SS      5
    8   11   SE     -4
    8   11   ES      9
    8   11   EE      4
    8   15   SS     -6
    8   15   SE      1
    8   15   ES     12
    8   15   EE     12
    8   17   SS      4
    8   17   SE     -9
    8   17   ES      1
    8   17   EE      2
    9   16   SS     -7
    9   16   SE     -6
    9   16   ES      5
    9   16   EE      0
   10   11   SS      1
   10   11   SE     -2
   10   11   ES      9
   10   11   EE      1
   11   19   SS    -11
   11   19   SE      0
   11   19   ES      3
   11   19   EE      3
   12   13   SS     -1
   12   13   SE     -1
   12   13   ES      6
   12   13   EE     -1
   12   21   SS      2
   12   21   SE     -5
   12   21   ES     11
   12   21   EE     12
   13   17   SS     -2
   13   17   SE     -3
   13   17   ES     -9
   13   17   EE    -12
   14   15   SS     -2
   14   15   SE     11
   14   15   ES     12
   14   15   EE      8
   14   19   SS      9
   14   19   SE      2
   14   19   ES      3
   14   19   EE      9
   15   21   SS     -8
   15   21   SE     -1
   15   21   ES    -12
   15   21   EE     -3
   16   17   SS    -11
   16   17   SE     -7
   16   17   ES     -2
   16   17   EE     10
   16   18   SS     11
   16   18   SE      5
   16   18   ES      8
   16   18   EE      7
   17   19   SS     11
   17   19   SE      4
   17   19   ES      5
   17   19   EE    -10
   17   20   SS    -12
   17   20   SE      8
   17   20   ES      5
   17   20   EE     -2
   18   20   SS     -2
   18   20   SE      4
   18   20   ES      2
   18   20   EE     -8
************************************************************************
